1 2 30
4515
  4.0  1.57  45.9 38255.6   0.0
 1.05 12751.9 348.9
 1.54 18778.7 513.8
 1446
  905
 1025
 1274
 1260
 1290
 1402
 1421
  684
 1428
 1278
  963
 1435
 1375
  568
 1371
 1104
  655
 1470
  981
 1120
  848
 1381
  961
  691
 1155
 1088
 1453
  929
  839
